c Sudoku solution
p cnf 729 0
133 0
252 0
268 0
275 0
312 0
387 0
462 0
494 0
521 0
582 0
593 0
616 0
623 0
632 0
661 0
685 0
697 0
711 0
764 0
788 0
825 0
879 0
678 0
576 0
471 0
489 0
929 0
722 0
947 0
842 0
777 0
736 0
795 0
759 0
743 0
866 0
965 0
891 0
858 0
951 0
283 0
374 0
172 0
453 0
446 0
548 0
363 0
356 0
328 0
198 0
427 0
654 0
649 0
169 0
157 0
115 0
345 0
418 0
435 0
938 0
555 0
567 0
992 0
986 0
973 0
884 0
813 0
914 0
837 0
519 0
534 0
217 0
181 0
399 0
296 0
144 0
241 0
126 0
224 0
239 0
331 0
